158 300 53 53 51 72 65 60 60 72 70 61 85 60 82 68 65 79 100 77 71 80 72 94 99 63 57 96 83 82 86 99 80 89 51 82 61 67 66 71 63 60 56 98 71 88 91 86 92 90 63 87 70 59 80 68 72 87 88 79 93 73 77 97 86 79 52 71 70 69 92 83 79 72 81 100 85 71 60 76 60 73 62 54 82 66 72 79 77 84 57 69 56 59 65 67 88 68 88 82 61 54 64 90 76 69 64 60 90 74 86 75 71 72 79 52 88 76 55 64 59 88 57 91 97 73 57 58 65 69 90 76 73 78 90 100 98 53 84 61 51 95 86 72 66 90 100 79 65 54 93 99 66 75 63 87 98 95 95 87 